Route #1: 3 7 30 84 51 39 57 8 15 60 59 42 67 100 71 91
Route #2: 56 63 28 103 21 18 1 83 68 116 136 86 104 89
Route #3: 124 4 23 9 26 108 69 94 22 112 137 114 32 16
Route #4: 98
Route #5: 87 117 72 12 90 113 96 5 6 61 19 66 48 65 44 29
Route #6: 79 121 73 120 78 133 64 127 130 93 132 107 92 41 80 58 35 110 45 20
Route #7: 109 10 74 13 97 31 50 123 27 115 34 131 38 62 70 88
Route #8: 102 134 40 37 17 47 119 128 101 11 14 135 33 81
Route #9: 76 122 138 55 46 43 77 106 82 105 111 75 54
Route #10: 118 85 24 25 125 36 129 53 49 2 99 52 126 95
Cost 13052.000000